;; Mutation-Based Equivalence Benchmark
;; Source:     AutomatArk / instance04378.smt2
;; Mutations:  literal_char_inc, range_expand_hi
;; Status:     sat
;;
;; Original regex vs mutated regex
;; Equivalence check: unsat ⟺ L(R1) = L(R2)

(set-info :smt-lib-version 2.6)
(set-info :category "mutation")
(set-info :status sat)
(set-logic QF_S)


;; R1: original
;; R2: mutated (literal_char_inc, range_expand_hi)
(assert
  (not
    (=
      (re.++ (re.union (str.to_re "0") (re.++ (re.range "1" "9") ((_ re.loop 0 3) (re.range "0" "9"))) (re.++ (re.range "1" "5") ((_ re.loop 4 4) (re.range "0" "9"))) (re.++ (str.to_re "6") (re.range "0" "5") (re.range "0" "5") (re.union (re.++ (re.range "0" "2") (re.range "0" "9")) (re.++ (str.to_re "3") (re.range "0" "5"))))) (str.to_re "\u{a}"))
      (re.++ (re.union (str.to_re "0") (re.++ (re.range "1" "9") ((_ re.loop 0 3) (re.range "0" "9"))) (re.++ (re.range "1" "5") ((_ re.loop 4 4) (re.range "0" "9"))) (re.++ (str.to_re "6") (re.range "0" "5") (re.range "0" "5") (re.union (re.++ (re.range "0" "3") (re.range "0" "9")) (re.++ (str.to_re "4") (re.range "0" "5"))))) (str.to_re "\u{a}")))))

(check-sat)
(exit)
